61
2 0 4
3 0 4
4 1 7
4 2 11
5 0 9
5 1 5
5 2 11
5 4 9
6 1 3
6 3 9
6 4 7
7 0 12
7 1 4
7 2 12
7 3 6
8 1 4
8 4 11
8 6 12
9 1 11
9 4 4
9 5 4
10 2 10
10 6 11
10 8 9
10 9 7
11 2 2
11 3 2
11 6 9
11 7 4
11 10 6
12 1 3
12 2 7
12 3 9
12 6 11
12 7 4
12 10 10
13 0 12
13 5 2
14 1 12
14 3 11
14 5 9
14 7 6
14 8 5
14 11 8
14 12 11
15 0 9
15 5 2
15 6 6
15 7 12
15 8 10
15 9 5
15 10 1
15 12 10
15 14 5
16 0 9
16 3 5
16 4 4
16 5 9
16 6 1
16 7 8
16 8 11
16 9 11
16 10 9
16 12 3
16 14 11
17 6 1
17 9 7
17 12 4
17 15 12
17 16 2
18 1 8
18 2 9
18 3 4
18 6 1
18 7 4
18 8 12
18 14 10
19 3 1
19 5 2
19 18 1
20 0 9
20 6 12
20 7 8
20 11 6
20 14 12
20 16 11
20 18 5
21 5 9
21 6 11
21 8 11
21 9 12
21 13 8
21 15 6
21 16 10
21 19 2
22 1 5
22 7 10
22 8 4
22 9 12
22 10 1
22 12 6
22 13 1
22 14 2
22 15 9
22 16 9
22 17 12
22 20 5
23 0 10
23 1 7
23 2 4
23 8 12
23 9 1
23 10 4
23 12 9
23 15 7
23 17 1
23 18 8
24 0 11
24 4 11
24 5 6
24 6 7
24 7 8
24 8 9
24 9 10
24 10 8
24 11 9
24 13 7
24 14 6
24 18 12
24 21 5
24 22 10
25 0 10
25 1 4
25 2 8
25 3 6
25 4 10
25 5 3
25 6 5
25 9 3
25 10 2
25 12 4
25 13 12
25 16 12
25 17 10
25 18 10
25 22 11
26 1 8
26 6 4
26 7 12
26 8 8
26 10 3
26 11 12
26 14 12
26 19 12
26 20 6
26 23 9
27 4 4
27 6 11
27 7 8
27 9 5
27 11 9
27 13 2
27 14 9
27 16 2
27 17 2
27 23 9
28 5 3
28 6 2
28 7 5
28 10 5
28 11 9
28 12 2
28 13 2
28 14 2
28 17 6
28 19 6
28 20 12
28 21 9
28 22 10
28 23 11
28 24 2
28 26 7
29 6 9
29 9 2
29 13 12
29 18 9
29 19 8
29 20 2
29 25 2
29 26 6
29 28 5
30 0 12
30 4 4
30 5 9
30 6 5
30 7 2
30 8 10
30 9 5
30 12 1
30 16 4
30 18 7
30 20 12
30 21 2
30 22 10
30 26 11
30 27 12
30 28 5
31 0 12
31 3 11
31 6 2
31 7 8
31 9 7
31 10 11
31 11 8
31 14 8
31 17 6
31 19 11
31 23 11
31 29 12
31 30 6
32 0 1
32 1 9
32 6 10
32 7 3
32 9 4
32 12 1
32 13 5
32 14 6
32 16 6
32 19 5
32 21 1
32 22 2
32 23 4
32 24 4
32 25 5
32 26 8
32 28 8
32 29 5
32 31 6
33 2 1
33 3 9
33 4 6
33 5 2
33 6 9
33 7 6
33 12 8
33 13 8
33 16 8
33 18 3
33 19 12
33 20 11
33 21 2
33 24 1
33 30 6
34 0 8
34 1 8
34 2 10
34 3 7
34 6 9
34 10 11
34 13 11
34 15 8
34 17 1
34 19 6
34 20 6
34 25 4
34 26 1
34 27 6
34 28 2
34 30 11
34 31 5
34 33 4
35 1 7
35 5 2
35 7 8
35 8 2
35 10 6
35 12 10
35 14 1
35 15 9
35 17 3
35 19 11
35 23 6
35 24 1
35 25 3
35 26 2
35 27 12
35 28 1
35 29 9
35 32 4
35 34 4
36 0 11
36 3 4
36 7 8
36 8 10
36 9 9
36 10 4
36 16 5
36 18 4
36 19 1
36 20 5
36 27 11
36 30 7
36 31 10
37 0 2
37 3 5
37 4 3
37 6 7
37 7 9
37 8 1
37 9 5
37 10 8
37 12 10
37 13 4
37 14 10
37 15 9
37 20 4
37 21 6
37 22 9
37 23 2
37 24 9
37 26 9
37 28 6
37 29 8
37 32 6
37 35 10
38 3 6
38 4 3
38 5 12
38 6 1
38 8 6
38 9 4
38 11 10
38 13 7
38 21 5
38 23 4
38 24 2
38 25 10
38 26 11
38 28 4
38 33 6
38 34 5
38 36 3
38 37 9
39 1 8
39 3 9
39 4 6
39 9 8
39 10 8
39 11 8
39 12 6
39 13 5
39 14 3
39 16 5
39 17 1
39 19 8
39 20 12
39 21 10
39 23 8
39 26 3
39 29 4
39 30 3
39 32 10
39 33 7
39 37 1
39 38 10
40 0 11
40 4 4
40 7 9
40 8 7
40 9 4
40 11 7
40 12 8
40 15 12
40 20 12
40 21 8
40 22 9
40 23 5
40 25 8
40 27 5
40 28 6
40 32 5
40 34 11
40 37 1
40 39 5
41 0 9
41 1 3
41 5 10
41 7 4
41 9 1
41 10 3
41 12 11
41 14 11
41 16 2
41 20 11
41 23 7
41 24 12
41 26 4
41 28 8
41 29 10
41 30 11
41 31 11
41 32 7
41 34 6
41 38 5
42 0 1
42 2 11
42 3 5
42 5 1
42 6 12
42 8 8
42 9 10
42 10 2
42 13 7
42 16 2
42 17 12
42 21 6
42 23 2
42 28 12
42 29 1
42 31 4
42 38 10
42 40 3
42 41 10
43 1 6
43 3 8
43 6 8
43 8 6
43 9 7
43 10 3
43 12 4
43 13 8
43 14 6
43 15 8
43 16 3
43 18 1
43 19 2
43 20 11
43 21 12
43 24 5
43 26 10
43 30 6
43 31 10
43 32 12
43 35 8
43 36 6
43 37 10
43 38 1
43 40 9
43 42 4
44 0 8
44 3 4
44 4 9
44 15 8
44 17 9
44 18 7
44 20 3
44 24 8
44 28 4
44 29 6
44 31 11
44 33 7
44 36 6
44 37 5
44 38 3
44 39 9
44 42 1
44 43 5
45 3 9
45 8 5
45 9 8
45 10 1
45 14 8
45 18 2
45 19 11
45 20 7
45 22 2
45 23 8
45 30 8
45 31 3
45 33 3
45 34 1
45 35 5
45 36 9
45 38 4
45 39 12
45 42 4
45 43 9
45 44 2
46 2 10
46 3 1
46 4 8
46 7 3
46 8 12
46 9 5
46 12 9
46 14 10
46 15 10
46 16 6
46 19 6
46 22 9
46 25 2
46 26 7
46 27 12
46 29 6
46 30 1
46 32 9
46 36 5
46 40 2
46 41 2
46 43 5
47 0 1
47 3 8
47 5 1
47 7 4
47 8 12
47 10 11
47 11 1
47 12 4
47 13 7
47 15 2
47 18 7
47 19 11
47 21 7
47 25 6
47 26 12
47 27 6
47 30 2
47 32 1
47 34 10
47 37 1
47 39 10
47 46 4
48 0 6
48 5 12
48 7 9
48 9 1
48 11 2
48 12 4
48 13 11
48 14 10
48 19 4
48 21 2
48 24 12
48 27 4
48 28 9
48 30 6
48 33 11
48 35 8
48 36 11
48 37 10
48 40 6
48 42 7
48 44 9
48 45 11
48 46 4
48 47 3
49 0 7
49 1 11
49 2 5
49 4 9
49 9 12
49 10 5
49 11 1
49 13 1
49 19 6
49 20 12
49 23 5
49 25 4
49 27 3
49 29 10
49 30 3
49 31 10
49 32 8
49 36 9
49 39 2
49 41 3
49 44 7
49 46 11
49 47 3
49 48 4
50 3 3
50 4 10
50 6 6
50 7 9
50 10 6
50 12 11
50 14 6
50 15 10
50 17 7
50 18 12
50 19 7
50 20 3
50 23 10
50 25 8
50 26 9
50 27 4
50 28 6
50 29 7
50 30 9
50 31 5
50 32 5
50 33 2
50 35 6
50 37 2
50 39 5
50 41 3
50 42 4
50 45 11
50 47 12
50 48 6
51 0 3
51 2 11
51 3 8
51 5 1
51 10 8
51 13 8
51 15 1
51 17 1
51 21 7
51 22 11
51 28 9
51 33 9
51 35 1
51 37 6
51 40 2
51 41 3
51 42 3
51 48 5
52 0 12
52 1 12
52 3 2
52 4 11
52 6 12
52 9 12
52 10 5
52 12 8
52 13 3
52 17 5
52 18 9
52 20 2
52 21 6
52 22 5
52 23 8
52 27 1
52 28 4
52 29 1
52 32 3
52 33 1
52 34 10
52 35 9
52 36 10
52 37 1
52 40 4
52 41 6
52 42 7
52 44 5
52 46 10
52 47 8
52 51 10
53 0 8
53 2 5
53 4 7
53 5 8
53 6 11
53 9 9
53 11 9
53 15 7
53 16 6
53 21 10
53 25 2
53 26 12
53 27 11
53 28 4
53 31 11
53 32 11
53 33 4
53 34 12
53 35 6
53 36 6
53 37 12
53 38 12
53 39 7
53 43 3
53 47 6
53 50 2
53 51 1
53 52 9
54 0 1
54 3 3
54 6 6
54 7 1
54 8 4
54 9 2
54 10 5
54 14 6
54 15 6
54 18 1
54 19 6
54 21 10
54 22 9
54 23 5
54 24 4
54 26 2
54 27 10
54 29 12
54 30 10
54 33 5
54 35 11
54 40 11
54 41 4
54 43 1
54 47 4
54 49 1
54 50 7
54 53 10
55 2 1
55 5 8
55 10 7
55 11 3
55 12 2
55 14 5
55 15 6
55 16 11
55 17 10
55 18 10
55 21 12
55 24 1
55 25 8
55 26 5
55 29 10
55 30 11
55 33 2
55 34 9
55 38 10
55 41 3
55 45 4
55 46 8
55 48 3
55 49 8
55 50 12
55 51 3
55 54 8
56 3 2
56 5 2
56 7 5
56 10 9
56 11 6
56 12 6
56 17 9
56 18 2
56 21 11
56 23 3
56 25 12
56 29 7
56 30 8
56 34 1
56 36 5
56 37 4
56 40 5
56 42 11
56 44 11
56 45 1
56 46 1
56 48 10
56 55 6
57 0 7
57 1 4
57 3 11
57 4 9
57 6 9
57 13 11
57 17 4
57 18 9
57 21 5
57 22 10
57 24 11
57 25 3
57 27 12
57 28 5
57 31 5
57 33 4
57 35 1
57 36 2
57 40 4
57 41 5
57 47 10
57 50 1
57 51 6
57 53 10
57 55 9
57 56 7
58 1 10
58 5 6
58 6 4
58 8 5
58 9 8
58 11 5
58 12 6
58 14 8
58 16 5
58 17 7
58 21 6
58 22 2
58 25 9
58 26 5
58 27 1
58 28 9
58 30 2
58 31 7
58 34 4
58 37 2
58 39 4
58 40 5
58 43 4
58 45 6
58 46 7
58 47 5
58 54 12
58 57 8
59 0 1
59 1 10
59 4 6
59 5 1
59 7 3
59 10 12
59 12 7
59 13 7
59 15 9
59 19 6
59 21 10
59 22 8
59 24 7
59 25 11
59 26 7
59 28 12
59 30 9
59 31 8
59 34 11
59 35 4
59 36 6
59 37 6
59 38 4
59 43 5
59 45 6
59 49 11
59 50 3
59 56 11
59 57 12
59 58 6
60 0 8
60 1 11
60 3 10
60 4 1
60 6 2
60 8 11
60 10 9
60 13 9
60 17 9
60 20 11
60 25 12
60 32 6
60 34 2
60 35 11
60 36 8
60 39 10
60 40 12
60 43 2
60 51 1
60 53 10
60 54 12
60 55 10
60 56 3
60 57 3
60 59 11
